(declare-fun e () String)
(declare-fun c () String)
(declare-fun g () String)
(declare-fun b () String)
(declare-fun a () String)
(declare-fun h () String)
(assert (= (str.++ a b a "ae") (str.++ "f" e c)))
(assert (= (str.++ "ef" h g "fh") "ce"))
(assert (= "h" (str.++ "ad" h "beg")))

(check-sat)
